27	3

10	10	7	

0	0	0	0	3	2	3	4	
4	3	5	2	2	5	6	
3	5	4	3	2	6	8	
2	5	2	2	2	6	7	
8	4	1	4	2	9	10	
2	5	5	4	2	9	11	
3	3	5	2	2	10	12	
2	2	4	4	2	9	12	
2	3	2	2	2	13	15	
2	3	2	4	1	14	
2	3	3	2	1	13	
2	4	1	4	1	16	
4	1	4	4	1	20	
2	2	2	2	1	17	
1	5	5	4	2	18	19	
1	1	5	4	1	17	
1	4	5	4	1	22	
2	3	2	3	2	21	23	
3	5	3	3	2	21	24	
2	2	4	6	1	22	
3	1	6	2	1	25	
6	3	2	1	1	25	
6	1	0	4	1	26	
3	2	2	1	1	25	
3	0	1	3	1	27	
7	2	2	2	1	27	
0	0	0	0	0	
